
Gurobi 9.1.2 (linux64, gurobi_cl) logging started Fri Jul 30 13:54:40 2021

Using license file /opt/gurobi/gurobi.lic
Set parameter TimeLimit to value 600
Set parameter Heuristics to value 0.1
Set parameter Cuts to value 0
Set parameter LogFile to value 912-Cuts0-Heuristics0.1-glass4-0.log

Gurobi Optimizer version 9.1.2 build v9.1.2rc0 (linux64)
Copyright (c) 2021, Gurobi Optimization, LLC

Read MPS format model from file /nfs/models/mip/glass4.mps.bz2
Reading time = 0.00 seconds
glass4: 396 rows, 322 columns, 1815 nonzeros
Thread count: 4 physical cores, 8 logical processors, using up to 8 threads
Optimize a model with 396 rows, 322 columns and 1815 nonzeros
Model fingerprint: 0x0a9d9037
Variable types: 20 continuous, 302 integer (0 binary)
Coefficient statistics:
  Matrix range     [1e+00, 8e+06]
  Objective range  [1e+00, 1e+06]
  Bounds range     [1e+00, 8e+02]
  RHS range        [1e+00, 8e+06]
Presolve removed 6 rows and 6 columns
Presolve time: 0.00s
Presolved: 390 rows, 316 columns, 1803 nonzeros
Variable types: 19 continuous, 297 integer (297 binary)
Found heuristic solution: objective 3.133356e+09

Root relaxation: objective 8.000024e+08, 72 iterations, 0.00 seconds

    Nodes    |    Current Node    |     Objective Bounds      |     Work
 Expl Unexpl |  Obj  Depth IntInf | Incumbent    BestBd   Gap | It/Node Time

     0     0 8.0000e+08    0   72 3.1334e+09 8.0000e+08  74.5%     -    0s
H    0     0                    2.200019e+09 8.0000e+08  63.6%     -    0s
H    0     0                    2.000016e+09 8.0000e+08  60.0%     -    0s
     0     0 8.0000e+08    0   72 2.0000e+09 8.0000e+08  60.0%     -    0s
     0     2 8.0000e+08    0   72 2.0000e+09 8.0000e+08  60.0%     -    0s
H  607   747                    2.000016e+09 8.0000e+08  60.0%   2.4    0s
H  805   747                    2.000016e+09 8.0000e+08  60.0%   2.4    0s
H  832   856                    2.000016e+09 8.0000e+08  60.0%   2.5    0s
H  859   849                    1.888904e+09 8.0000e+08  57.6%   2.5    0s
H 1762  1476                    1.833349e+09 8.0000e+08  56.4%   2.6    0s
H 1767  1403                    1.833349e+09 8.0000e+08  56.4%   2.6    0s
H 1832  1386                    1.825016e+09 8.0000e+08  56.2%   2.7    0s
H 1885  1353                    1.800017e+09 8.0000e+08  55.6%   2.7    0s
H 1887  1288                    1.771444e+09 8.0000e+08  54.8%   2.7    0s
H 2470  1467                    1.733349e+09 8.0000e+08  53.8%   3.0    0s
H 2472  1365                    1.628586e+09 8.0000e+08  50.9%   3.0    0s
H 2628  1378                    1.600014e+09 8.0000e+08  50.0%   3.0    0s
H 2636  1324                    1.600013e+09 8.0000e+08  50.0%   3.0    0s
H 6985  3567                    1.600013e+09 8.0000e+08  50.0%   3.3    1s
H12964  7391                    1.550013e+09 8.0000e+08  48.4%   3.6    2s
H13912  7122                    1.500013e+09 8.0000e+08  46.7%   3.6    2s
H24384 10917                    1.466679e+09 8.0000e+08  45.5%   4.3    3s
H24558 11461                    1.466679e+09 8.0000e+08  45.5%   4.3    4s
H25411 11234                    1.433346e+09 8.0000e+08  44.2%   4.3    4s
 31211 15967 infeasible   61      1.4333e+09 8.0000e+08  44.2%   4.1    5s
*47422 18574              65    1.400013e+09 8.0000e+08  42.9%   4.8    8s
H58759 14787                    1.200013e+09 8.0001e+08  33.3%   5.0    9s
 62990 13454 9.0000e+08   37   60 1.2000e+09 8.0001e+08  33.3%   4.9   10s

Explored 93375 nodes (410435 simplex iterations) in 11.38 seconds
Thread count was 8 (of 8 available processors)

Solution count 10: 1.20001e+09 1.40001e+09 1.43335e+09 ... 1.60001e+09

Optimal solution found (tolerance 1.00e-04)
Best objective 1.200012600000e+09, best bound 1.200003200000e+09, gap 0.0008%
